amountOfEmployees = 60;
horizonLength = 28;
amountOfShifts = 4;

shiftsPerDay = [|3,0,1,0,
|6,38,4,0,
|41,9,2,0,
|45,11,0,0,
|2,0,2,0,
|41,0,11,0,
|2,0,8,0,
|35,9,0,0,
|37,5,4,0,
|39,10,0,0,
|10,3,0,0,
|1,0,0,0,
|2,3,0,0,
|44,1,10,0,
|40,5,6,0,
|14,4,0,0,
|12,47,0,0,
|10,2,0,0,
|2,1,0,0,
|8,2,0,0,
|8,2,0,0,
|37,6,3,0,
|2,0,8,0,
|39,8,2,0,
|41,7,4,0,
|11,0,40,0,
|1,3,14,0,
|0,2,10,0,
|];

preferences = array3d(1..60,1..28,1..4,[1,4,4,4,1,4,4,4,2,4,4,2,1,4,4,4,2,4,4,4,2,4,4,2,1,4,4,4,1,4,4,4,1,4,4,4,1,4,4,4,1,4,4,4,2,4,4,2,1,4,4,4,2,4,4,2,1,4,4,4,1,4,4,4,1,4,4,4,2,4,4,2,2,4,4,2,2,4,4,4,1,4,4,4,1,4,4,4,2,4,4,4,1,4,4,4,2,4,4,2,1,4,4,4,1,4,4,4,1,4,4,4,2,4,4,4,4,4,4,4,2,4,4,2,4,4,4,4,2,4,4,4,2,4,4,2,2,4,4,4,2,4,4,4,2,4,4,4,4,4,4,4,4,4,4,4,2,4,4,2,2,4,4,4,2,4,4,2,4,4,4,4,2,4,4,4,2,4,4,4,2,4,4,2,2,4,4,2,2,4,4,4,2,4,4,4,4,4,4,4,2,4,4,4,2,4,4,4,2,4,4,2,2,4,4,4,4,4,4,4,4,4,4,4,1,4,4,4,1,4,4,4,1,4,4,1,1,4,4,4,1,1,1,1,1,4,4,1,1,4,4,4,1,4,4,4,1,4,4,4,1,4,4,4,1,4,4,4,1,4,4,1,1,4,4,4,1,4,4,1,1,4,4,4,1,4,4,4,1,4,4,4,1,4,4,1,1,4,4,1,1,1,1,1,1,4,4,4,1,4,4,4,1,1,1,1,1,4,4,4,1,4,4,1,1,4,4,4,1,4,4,4,1,4,4,4,4,1,4,3,2,4,4,3,2,1,1,2,2,4,4,3,2,4,4,4,2,1,1,2,4,1,4,3,4,1,4,3,4,1,4,3,2,4,4,3,2,4,4,3,2,1,1,2,4,1,4,3,2,1,1,2,2,4,4,3,4,1,4,3,4,1,4,3,2,1,1,2,2,1,1,2,2,4,4,4,4,1,4,3,2,4,4,3,2,4,4,4,4,1,4,3,2,1,1,2,4,1,4,3,2,4,4,3,2,4,4,3,2,4,4,4,4,4,4,4,2,4,4,2,4,4,4,4,2,4,4,4,2,4,4,2,2,4,4,4,2,4,4,4,2,4,4,4,4,4,4,4,4,4,4,4,2,4,4,2,2,4,4,4,2,4,4,2,4,4,4,4,2,4,4,4,2,4,4,4,2,4,4,2,2,4,4,2,2,4,4,4,2,4,4,4,4,4,4,4,2,4,4,4,2,4,4,4,2,4,4,2,2,4,4,4,4,4,4,4,4,4,4,4,4,1,4,4,1,4,4,4,2,1,1,2,1,4,4,4,1,1,1,1,2,1,1,2,4,1,4,4,4,1,4,4,4,1,4,4,1,4,4,4,1,4,4,4,2,1,1,2,4,1,4,4,2,1,1,2,1,4,4,4,4,1,4,4,4,1,4,4,2,1,1,2,2,1,1,2,1,1,1,1,4,1,4,4,1,4,4,4,1,1,1,1,4,1,4,4,2,1,1,2,4,1,4,4,1,4,4,4,1,4,4,4,2,4,4,4,4,4,4,4,2,4,4,2,4,4,4,4,2,4,4,4,2,4,4,2,2,4,4,4,2,4,4,4,2,4,4,4,4,4,4,4,4,4,4,4,2,4,4,2,2,4,4,4,2,4,4,2,4,4,4,4,2,4,4,4,2,4,4,4,2,4,4,2,2,4,4,2,2,4,4,4,2,4,4,4,4,4,4,4,2,4,4,4,2,4,4,4,2,4,4,2,2,4,4,4,4,4,4,4,4,4,4,4,4,1,4,4,4,1,4,4,2,1,1,2,4,1,4,4,2,4,4,4,2,1,1,2,4,1,4,4,4,1,4,4,4,1,4,4,4,1,4,4,4,1,4,4,2,1,1,2,4,1,4,4,2,1,1,2,4,1,4,4,4,1,4,4,4,1,4,4,2,1,1,2,2,1,1,2,2,4,4,4,4,1,4,4,4,1,4,4,2,4,4,4,4,1,4,4,2,1,1,2,4,1,4,4,4,1,4,4,4,1,4,4,4,4,4,4,4,4,4,4,2,4,4,2,4,4,4,4,2,4,4,4,2,4,4,2,4,4,4,4,4,4,4,4,4,4,4,4,4,4,4,4,4,4,4,4,2,4,4,2,4,4,4,4,2,4,4,2,4,4,4,4,4,4,4,4,4,4,4,4,2,4,4,2,2,4,4,2,2,4,4,4,4,4,4,4,4,4,4,4,2,4,4,4,4,4,4,4,2,4,4,2,4,4,4,4,4,4,4,4,4,4,4,4,1,4,4,3,4,4,4,3,1,4,4,4,4,4,4,3,2,4,4,4,1,4,4,4,1,4,4,3,1,4,4,3,1,4,4,3,4,4,4,3,4,4,4,3,1,4,4,4,1,4,4,3,1,4,4,4,4,4,4,3,1,4,4,3,1,4,4,3,1,4,4,4,1,4,4,4,2,4,4,4,1,4,4,3,4,4,4,3,2,4,4,4,1,4,4,3,1,4,4,4,1,4,4,3,4,4,4,3,4,4,4,3,4,1,4,4,4,4,4,4,2,1,1,2,4,4,4,4,2,4,4,4,2,1,1,2,4,1,4,4,4,1,4,4,4,1,4,4,4,4,4,4,4,4,4,4,2,1,1,2,4,1,4,4,2,1,1,2,4,4,4,4,4,1,4,4,4,1,4,4,2,1,1,2,2,1,1,2,2,4,4,4,4,1,4,4,4,4,4,4,2,4,4,4,4,1,4,4,2,1,1,2,4,1,4,4,4,4,4,4,4,4,4,4,4,4,2,3,4,1,2,3,2,4,4,2,4,1,2,3,2,4,4,4,2,4,4,2,4,4,2,3,4,4,2,3,4,4,2,3,4,1,2,3,4,1,2,3,2,4,4,2,4,4,2,3,2,4,4,2,4,1,2,3,4,4,2,3,4,4,2,3,2,4,4,2,2,4,4,2,2,4,4,4,4,4,2,3,4,1,2,3,2,4,4,4,4,4,2,3,2,4,4,2,4,4,2,3,4,1,2,3,4,1,2,3,4,4,4,4,4,4,4,4,2,4,4,2,4,4,4,4,1,1,1,1,2,4,4,2,4,4,4,4,4,4,4,4,4,4,4,4,4,4,4,4,4,4,4,4,2,4,4,2,4,4,4,4,2,4,4,2,4,4,4,4,4,4,4,4,4,4,4,4,2,4,4,2,2,4,4,2,1,1,1,1,4,4,4,4,4,4,4,4,1,1,1,1,4,4,4,4,2,4,4,2,4,4,4,4,4,4,4,4,4,4,4,4,4,4,3,4,1,4,3,4,1,4,4,1,1,4,3,4,2,4,4,4,1,4,4,1,4,4,3,4,4,4,3,4,4,4,3,4,1,4,3,4,1,4,3,4,1,4,4,1,4,4,3,4,1,4,4,1,1,4,3,4,4,4,3,4,4,4,3,4,1,4,4,1,1,4,4,1,2,4,4,4,4,4,3,4,1,4,3,4,2,4,4,4,4,4,3,4,1,4,4,1,4,4,3,4,1,4,3,4,1,4,3,4,4,4,2,4,4,4,2,4,2,4,4,2,4,4,2,4,2,4,4,4,2,4,4,2,4,4,2,4,4,4,2,4,4,4,2,4,4,4,2,4,4,4,2,4,2,4,4,2,4,4,2,4,2,4,4,2,4,4,2,4,4,4,2,4,4,4,2,4,2,4,4,2,2,4,4,2,2,4,4,4,4,4,2,4,4,4,2,4,2,4,4,4,4,4,2,4,2,4,4,2,4,4,2,4,4,4,2,4,4,4,2,4,4,4,4,4,4,4,4,4,2,4,4,2,4,4,4,4,2,4,4,4,2,4,4,2,4,4,4,4,4,4,4,4,4,4,4,4,4,4,4,4,4,4,4,4,2,4,4,2,4,4,4,4,2,4,4,2,4,4,4,4,4,4,4,4,4,4,4,4,2,4,4,2,2,4,4,2,2,4,4,4,4,4,4,4,4,4,4,4,2,4,4,4,4,4,4,4,2,4,4,2,4,4,4,4,4,4,4,4,4,4,4,4,1,4,4,3,1,4,4,3,2,4,4,2,1,4,4,3,1,4,4,4,2,4,4,2,1,4,4,3,1,4,4,3,1,4,4,3,1,4,4,3,1,4,4,3,2,4,4,2,1,4,4,3,2,4,4,2,1,4,4,3,1,4,4,3,1,4,4,3,2,4,4,2,2,4,4,2,1,4,4,4,1,4,4,3,1,4,4,3,1,4,4,4,1,4,4,3,2,4,4,2,1,4,4,3,1,4,4,3,1,4,4,3,4,4,4,3,4,1,4,3,4,4,4,1,4,1,4,3,2,4,4,4,4,4,4,1,4,4,4,3,4,4,4,3,4,4,4,3,4,1,4,3,4,1,4,3,4,4,4,1,4,4,4,3,4,4,4,1,4,1,4,3,4,4,4,3,4,4,4,3,4,4,4,1,4,4,4,1,2,4,4,4,4,4,4,3,4,1,4,3,2,4,4,4,4,4,4,3,4,4,4,1,4,4,4,3,4,1,4,3,4,1,4,3,1,4,4,3,4,1,4,3,2,4,4,2,4,1,4,3,1,4,4,4,2,4,4,2,1,4,4,3,1,4,4,3,1,4,4,3,4,1,4,3,4,1,4,3,2,4,4,2,1,4,4,3,2,4,4,2,4,1,4,3,1,4,4,3,1,4,4,3,2,4,4,2,2,4,4,2,1,4,4,4,1,4,4,3,4,1,4,3,1,4,4,4,1,4,4,3,2,4,4,2,1,4,4,3,4,1,4,3,4,1,4,3,4,4,4,4,4,4,4,4,2,4,4,2,4,4,4,4,2,4,4,4,2,4,4,2,4,4,4,4,4,4,4,4,4,4,4,4,4,4,4,4,4,4,4,4,2,4,4,2,4,4,4,4,2,4,4,2,4,4,4,4,4,4,4,4,4,4,4,4,2,4,4,2,2,4,4,2,2,4,4,4,4,4,4,4,4,4,4,4,2,4,4,4,4,4,4,4,2,4,4,2,4,4,4,4,4,4,4,4,4,4,4,4,4,4,1,4,4,4,1,4,4,4,4,1,4,4,1,4,2,4,4,4,4,4,4,1,4,4,1,4,4,4,1,4,4,4,1,4,4,4,1,4,4,4,1,4,4,4,4,1,4,4,1,4,4,4,4,1,4,4,1,4,4,4,1,4,4,4,1,4,4,4,4,1,4,4,4,1,2,4,4,4,4,4,1,4,4,4,1,4,2,4,4,4,4,4,1,4,4,4,4,1,4,4,1,4,4,4,1,4,4,4,1,4,4,1,4,3,4,4,4,3,2,1,1,2,4,4,4,3,1,1,1,1,2,1,1,2,4,1,4,3,4,1,4,3,4,1,4,3,4,4,4,3,4,4,4,3,2,1,1,2,4,1,4,3,2,1,1,2,4,4,4,3,4,1,4,3,4,1,4,3,2,1,1,2,2,1,1,2,1,1,1,1,4,1,4,3,4,4,4,3,1,1,1,1,4,1,4,3,2,1,1,2,4,1,4,3,4,4,4,3,4,4,4,3,4,4,2,4,4,4,2,4,4,4,4,1,4,4,2,4,2,4,4,4,4,4,4,1,4,4,2,4,4,4,2,4,4,4,2,4,4,4,2,4,4,4,2,4,4,4,4,1,4,4,2,4,4,4,4,1,4,4,2,4,4,4,2,4,4,4,2,4,4,4,4,1,4,4,4,1,2,4,4,4,4,4,2,4,4,4,2,4,2,4,4,4,4,4,2,4,4,4,4,1,4,4,2,4,4,4,2,4,4,4,2,4,4,4,4,4,4,4,4,4,2,4,4,2,4,4,4,4,2,1,1,1,2,4,4,2,4,4,4,4,4,4,4,4,4,4,4,4,4,4,4,4,4,4,4,4,2,4,4,2,4,4,4,4,2,4,4,2,4,4,4,4,4,4,4,4,4,4,4,4,2,4,4,2,2,4,4,2,2,1,1,1,4,4,4,4,4,4,4,4,2,1,1,1,4,4,4,4,2,4,4,2,4,4,4,4,4,4,4,4,4,4,4,4,4,4,2,4,4,1,2,4,4,4,4,1,4,1,2,4,2,4,4,4,4,4,4,1,4,4,2,4,4,4,2,4,4,4,2,4,4,1,2,4,4,1,2,4,4,4,4,1,4,4,2,4,4,4,4,1,4,1,2,4,4,4,2,4,4,4,2,4,4,4,4,1,4,4,4,1,2,4,4,4,4,4,2,4,4,1,2,4,2,4,4,4,4,4,2,4,4,4,4,1,4,4,2,4,4,1,2,4,4,1,2,4,4,4,4,4,4,4,4,4,4,4,4,1,4,4,4,4,2,4,4,4,4,4,4,1,4,4,4,4,4,4,4,4,4,4,4,4,4,4,4,4,4,4,4,4,4,4,4,1,4,4,4,4,4,4,4,1,4,4,4,4,4,4,4,4,4,4,4,4,4,4,4,1,4,4,4,1,2,4,4,4,4,4,4,4,4,4,4,4,2,4,4,4,4,4,4,4,4,4,4,1,4,4,4,4,4,4,4,4,4,4,4,4,4,4,4,4,4,4,4,4,2,4,4,2,4,4,4,4,2,4,4,4,2,4,4,2,4,4,4,4,4,4,4,4,4,4,4,4,4,4,4,4,4,4,4,4,2,4,4,2,4,4,4,4,2,4,4,2,4,4,4,4,4,4,4,4,4,4,4,4,2,4,4,2,2,4,4,2,2,4,4,4,4,4,4,4,4,4,4,4,2,4,4,4,4,4,4,4,2,4,4,2,4,4,4,4,4,4,4,4,4,4,4,4,4,4,4,3,4,4,4,3,4,4,4,1,4,4,4,3,2,1,1,1,4,4,4,1,4,4,4,3,4,4,4,3,4,4,4,3,4,4,4,3,4,4,4,3,4,4,4,1,4,4,4,3,4,4,4,1,4,4,4,3,4,4,4,3,4,4,4,3,4,4,4,1,4,4,4,1,2,1,1,1,4,4,4,3,4,4,4,3,2,1,1,1,4,4,4,3,4,4,4,1,4,4,4,3,4,4,4,3,4,4,4,3,2,4,4,4,2,1,4,4,2,4,4,2,2,1,4,4,2,4,4,4,2,4,4,2,2,4,4,4,2,4,4,4,2,4,4,4,2,1,4,4,2,1,4,4,2,4,4,2,2,4,4,4,2,4,4,2,2,1,4,4,2,4,4,4,2,4,4,4,2,4,4,2,2,4,4,2,2,4,4,4,2,4,4,4,2,1,4,4,2,4,4,4,2,4,4,4,2,4,4,2,2,4,4,4,2,1,4,4,2,1,4,4,4,1,4,4,2,1,4,4,2,1,1,2,2,1,4,4,1,1,1,1,2,1,1,2,4,1,4,4,4,1,4,4,4,1,4,4,2,1,4,4,2,1,4,4,2,1,1,2,4,1,4,4,2,1,1,2,2,1,4,4,4,1,4,4,4,1,4,4,2,1,1,2,2,1,1,2,1,1,1,1,4,1,4,4,2,1,4,4,1,1,1,1,4,1,4,4,2,1,1,2,4,1,4,4,2,1,4,4,2,1,4,4,4,4,3,4,4,4,3,4,2,4,4,2,4,4,3,4,2,4,4,4,2,4,4,2,4,4,3,4,4,4,3,4,4,4,3,4,4,4,3,4,4,4,3,4,2,4,4,2,4,4,3,4,2,4,4,2,4,4,3,4,4,4,3,4,4,4,3,4,2,4,4,2,2,4,4,2,2,4,4,4,4,4,3,4,4,4,3,4,2,4,4,4,4,4,3,4,2,4,4,2,4,4,3,4,4,4,3,4,4,4,3,4,4,4,1,3,4,4,1,3,2,4,4,2,4,4,1,3,2,4,4,4,2,4,4,2,4,4,1,3,4,4,1,3,4,4,1,3,4,4,1,3,4,4,1,3,2,4,4,2,4,4,1,3,2,4,4,2,4,4,1,3,4,4,1,3,4,4,1,3,2,4,4,2,2,4,4,2,2,4,4,4,4,4,1,3,4,4,1,3,2,4,4,4,4,4,1,3,2,4,4,2,4,4,1,3,4,4,1,3,4,4,1,3,4,1,2,4,4,1,2,4,1,1,1,1,4,1,2,4,2,4,4,4,1,1,1,1,4,1,2,4,4,1,2,4,4,1,2,4,4,1,2,4,4,1,2,4,1,1,1,1,4,1,2,4,1,1,1,1,4,1,2,4,4,1,2,4,4,1,2,4,1,1,1,1,1,1,1,1,2,4,4,4,4,1,2,4,4,1,2,4,2,4,4,4,4,1,2,4,1,1,1,1,4,1,2,4,4,1,2,4,4,1,2,4,4,4,4,4,2,4,4,4,2,4,4,2,2,4,4,4,2,1,1,1,2,4,4,2,4,4,4,4,4,4,4,4,4,4,4,4,2,4,4,4,2,4,4,4,2,4,4,2,4,4,4,4,2,4,4,2,2,4,4,4,4,4,4,4,4,4,4,4,2,4,4,2,2,4,4,2,2,1,1,1,4,4,4,4,2,4,4,4,2,1,1,1,4,4,4,4,2,4,4,2,4,4,4,4,2,4,4,4,2,4,4,4,4,4,4,4,4,4,4,4,2,4,4,2,4,4,4,4,2,4,4,4,2,4,4,2,4,4,4,4,4,4,4,4,4,4,4,4,4,4,4,4,4,4,4,4,2,4,4,2,4,4,4,4,2,4,4,2,4,4,4,4,4,4,4,4,4,4,4,4,2,4,4,2,2,4,4,2,2,4,4,4,4,4,4,4,4,4,4,4,2,4,4,4,4,4,4,4,2,4,4,2,4,4,4,4,4,4,4,4,4,4,4,4,1,4,4,4,1,4,4,4,2,4,4,2,1,4,4,4,2,4,4,4,2,4,4,2,1,4,4,4,1,4,4,4,1,4,4,4,1,4,4,4,1,4,4,4,2,4,4,2,1,4,4,4,2,4,4,2,1,4,4,4,1,4,4,4,1,4,4,4,2,4,4,2,2,4,4,2,2,4,4,4,1,4,4,4,1,4,4,4,2,4,4,4,1,4,4,4,2,4,4,2,1,4,4,4,1,4,4,4,1,4,4,4,4,1,4,4,4,4,4,4,2,1,1,2,4,4,4,4,1,4,4,4,2,1,1,2,4,1,4,4,4,1,4,4,4,1,4,4,4,4,4,4,4,4,4,4,2,1,1,2,4,1,4,4,2,1,1,2,4,4,4,4,4,1,4,4,4,1,4,4,2,1,1,2,2,1,1,2,1,4,4,4,4,1,4,4,4,4,4,4,1,4,4,4,4,1,4,4,2,1,1,2,4,1,4,4,4,4,4,4,4,4,4,4,4,4,4,3,4,4,4,3,2,4,4,2,4,4,4,3,1,4,4,4,2,4,4,2,4,4,4,3,4,4,4,3,4,4,4,3,4,4,4,3,4,4,4,3,2,4,4,2,4,4,4,3,2,4,4,2,4,4,4,3,4,4,4,3,4,4,4,3,2,4,4,2,2,4,4,2,1,4,4,4,4,4,4,3,4,4,4,3,1,4,4,4,4,4,4,3,2,4,4,2,4,4,4,3,4,4,4,3,4,4,4,3,4,1,4,4,4,4,4,4,2,1,1,2,4,4,4,4,2,4,4,4,2,1,1,2,4,1,4,4,4,1,4,4,4,1,4,4,4,4,4,4,4,4,4,4,2,1,1,2,4,1,4,4,2,1,1,2,4,4,4,4,4,1,4,4,4,1,4,4,2,1,1,2,2,1,1,2,2,4,4,4,4,1,4,4,4,4,4,4,2,4,4,4,4,1,4,4,2,1,1,2,4,1,4,4,4,4,4,4,4,4,4,4,1,4,2,4,1,4,2,4,2,4,4,2,1,4,2,4,2,1,1,1,2,4,4,2,1,4,2,4,1,4,2,4,1,4,2,4,1,4,2,4,1,4,2,4,2,4,4,2,1,4,2,4,2,4,4,2,1,4,2,4,1,4,2,4,1,4,2,4,2,4,4,2,2,4,4,2,2,1,1,1,1,4,2,4,1,4,2,4,2,1,1,1,1,4,2,4,2,4,4,2,1,4,2,4,1,4,2,4,1,4,2,4,4,1,4,4,4,4,4,4,1,1,1,1,4,4,4,4,2,4,4,4,1,1,1,1,4,1,4,4,4,1,4,4,4,1,4,4,4,4,4,4,4,4,4,4,1,1,1,1,4,1,4,4,1,1,1,1,4,4,4,4,4,1,4,4,4,1,4,4,1,1,1,1,1,1,1,1,2,4,4,4,4,1,4,4,4,4,4,4,2,4,4,4,4,1,4,4,1,1,1,1,4,1,4,4,4,4,4,4,4,4,4,4,2,4,4,4,4,1,4,4,2,4,4,2,4,1,4,4,2,1,1,1,2,4,4,2,2,4,4,4,2,4,4,4,2,4,4,4,4,1,4,4,4,1,4,4,2,4,4,2,2,4,4,4,2,4,4,2,4,1,4,4,2,4,4,4,2,4,4,4,2,4,4,2,2,4,4,2,2,1,1,1,2,4,4,4,4,1,4,4,2,1,1,1,2,4,4,4,2,4,4,2,2,4,4,4,4,1,4,4,4,1,4,4,4,4,4,3,2,4,4,3,2,4,4,2,2,4,4,3,2,4,4,4,2,4,4,2,4,4,4,3,4,4,4,3,4,4,4,3,2,4,4,3,2,4,4,3,2,4,4,2,4,4,4,3,2,4,4,2,2,4,4,3,4,4,4,3,4,4,4,3,2,4,4,2,2,4,4,2,2,4,4,4,4,4,4,3,2,4,4,3,2,4,4,4,4,4,4,3,2,4,4,2,4,4,4,3,2,4,4,3,2,4,4,3,1,1,4,4,4,4,4,4,2,1,1,2,4,4,4,4,1,4,4,4,2,1,1,2,1,1,4,4,1,1,4,4,1,1,4,4,4,4,4,4,4,4,4,4,2,1,1,2,1,1,4,4,2,1,1,2,4,4,4,4,1,1,4,4,1,1,4,4,2,1,1,2,2,1,1,2,1,4,4,4,1,1,4,4,4,4,4,4,1,4,4,4,1,1,4,4,2,1,1,2,1,1,4,4,4,4,4,4,4,4,4,4,4,4,1,4,4,4,1,4,2,4,4,2,4,4,1,4,1,4,4,4,2,4,4,2,4,4,1,4,4,4,1,4,4,4,1,4,4,4,1,4,4,4,1,4,2,4,4,2,4,4,1,4,2,4,4,2,4,4,1,4,4,4,1,4,4,4,1,4,2,4,4,2,2,4,4,2,1,4,4,4,4,4,1,4,4,4,1,4,1,4,4,4,4,4,1,4,2,4,4,2,4,4,1,4,4,4,1,4,4,4,1,4,2,1,2,4,2,4,2,4,2,1,1,2,2,4,2,4,2,1,1,1,2,1,1,2,2,1,2,4,2,1,2,4,2,1,2,4,2,4,2,4,2,4,2,4,2,1,1,2,2,1,2,4,2,1,1,2,2,4,2,4,2,1,2,4,2,1,2,4,2,1,1,2,2,1,1,2,2,1,1,1,2,1,2,4,2,4,2,4,2,1,1,1,2,1,2,4,2,1,1,2,2,1,2,4,2,4,2,4,2,4,2,4,4,4,4,4,4,4,4,4,2,4,4,2,4,4,4,4,2,4,4,4,2,4,4,2,4,4,4,4,4,4,4,4,4,4,4,4,4,4,4,4,4,4,4,4,2,4,4,2,4,4,4,4,2,4,4,2,4,4,4,4,4,4,4,4,4,4,4,4,2,4,4,2,2,4,4,2,2,4,4,4,4,4,4,4,4,4,4,4,2,4,4,4,4,4,4,4,2,4,4,2,4,4,4,4,4,4,4,4,4,4,4,4,4,1,4,4,4,1,4,4,1,1,1,1,4,1,4,4,1,1,1,1,1,1,1,1,4,1,4,4,4,1,4,4,4,1,4,4,4,1,4,4,4,1,4,4,1,1,1,1,4,1,4,4,1,1,1,1,4,1,4,4,4,1,4,4,4,1,4,4,1,1,1,1,1,1,1,1,1,1,1,1,4,1,4,4,4,1,4,4,1,1,1,1,4,1,4,4,1,1,1,1,4,1,4,4,4,1,4,4,4,1,4,4,4,4,4,4,4,4,4,4,2,4,4,2,4,4,4,4,2,4,4,4,2,4,4,2,4,4,4,4,4,4,4,4,4,4,4,4,4,4,4,4,4,4,4,4,2,4,4,2,4,4,4,4,2,4,4,2,4,4,4,4,4,4,4,4,4,4,4,4,2,4,4,2,2,4,4,2,2,4,4,4,4,4,4,4,4,4,4,4,2,4,4,4,4,4,4,4,2,4,4,2,4,4,4,4,4,4,4,4,4,4,4,4,4,4,4,3,4,1,4,3,2,4,4,2,4,1,4,3,2,4,4,4,2,4,4,2,4,4,4,3,4,4,4,3,4,4,4,3,4,1,4,3,4,1,4,3,2,4,4,2,4,4,4,3,2,4,4,2,4,1,4,3,4,4,4,3,4,4,4,3,2,4,4,2,2,4,4,2,2,4,4,4,4,4,4,3,4,1,4,3,2,4,4,4,4,4,4,3,2,4,4,2,4,4,4,3,4,1,4,3,4,1,4,3,4,4,4,4,4,4,4,4,4,4,4,1,4,4,4,4,2,1,1,1,4,4,4,1,4,4,4,4,4,4,4,4,4,4,4,4,4,4,4,4,4,4,4,4,4,4,4,1,4,4,4,4,4,4,4,1,4,4,4,4,4,4,4,4,4,4,4,4,4,4,4,1,4,4,4,1,2,1,1,1,4,4,4,4,4,4,4,4,2,1,1,1,4,4,4,4,4,4,4,1,4,4,4,4,4,4,4,4,4,4,4,4,4,1,4,3,4,4,4,3,2,1,1,2,4,4,4,3,2,4,4,4,2,1,1,2,4,1,4,3,4,1,4,3,4,1,4,3,4,4,4,3,4,4,4,3,2,1,1,2,4,1,4,3,2,1,1,2,4,4,4,3,4,1,4,3,4,1,4,3,2,1,1,2,2,1,1,2,2,4,4,4,4,1,4,3,4,4,4,3,2,4,4,4,4,1,4,3,2,1,1,2,4,1,4,3,4,4,4,3,4,4,4,3,4,4,4,3,4,1,4,3,2,4,4,2,4,1,4,3,2,1,1,1,2,4,4,2,4,4,4,3,4,4,4,3,4,4,4,3,4,1,4,3,4,1,4,3,2,4,4,2,4,4,4,3,2,4,4,2,4,1,4,3,4,4,4,3,4,4,4,3,2,4,4,2,2,4,4,2,2,1,1,1,4,4,4,3,4,1,4,3,2,1,1,1,4,4,4,3,2,4,4,2,4,4,4,3,4,1,4,3,4,1,4,3,4,4,4,4,4,4,4,4,2,4,4,2,4,4,4,4,2,4,4,4,2,4,4,2,4,4,4,4,4,4,4,4,4,4,4,4,4,4,4,4,4,4,4,4,2,4,4,2,4,4,4,4,2,4,4,2,4,4,4,4,4,4,4,4,4,4,4,4,2,4,4,2,2,4,4,2,2,4,4,4,4,4,4,4,4,4,4,4,2,4,4,4,4,4,4,4,2,4,4,2,4,4,4,4,4,4,4,4,4,4,4,4,4,4,4,4,4,1,4,4,2,4,4,2,4,1,4,4,2,4,4,4,2,4,4,2,4,4,4,4,4,4,4,4,4,4,4,4,4,1,4,4,4,1,4,4,2,4,4,2,4,4,4,4,2,4,4,2,4,1,4,4,4,4,4,4,4,4,4,4,2,4,4,2,2,4,4,2,2,4,4,4,4,4,4,4,4,1,4,4,2,4,4,4,4,4,4,4,2,4,4,2,4,4,4,4,4,1,4,4,4,1,4,4,4,4,4,4,4,4,4,4,2,4,4,2,4,4,4,4,1,4,4,4,2,4,4,2,4,4,4,4,4,4,4,4,4,4,4,4,4,4,4,4,4,4,4,4,2,4,4,2,4,4,4,4,2,4,4,2,4,4,4,4,4,4,4,4,4,4,4,4,2,4,4,2,2,4,4,2,1,4,4,4,4,4,4,4,4,4,4,4,1,4,4,4,4,4,4,4,2,4,4,2,4,4,4,4,4,4,4,4,4,4,4,4,4,4,2,4,2,1,2,4,2,4,4,2,2,1,2,4,2,4,4,4,2,4,4,2,4,4,2,4,4,4,2,4,4,4,2,4,2,1,2,4,2,1,2,4,2,4,4,2,4,4,2,4,2,4,4,2,2,1,2,4,4,4,2,4,4,4,2,4,2,4,4,2,2,4,4,2,2,4,4,4,4,4,2,4,2,1,2,4,2,4,4,4,4,4,2,4,2,4,4,2,4,4,2,4,2,1,2,4,2,1,2,4,4,4,2,4,4,4,2,4,2,4,4,2,4,4,2,4,2,4,4,4,2,4,4,2,4,4,2,4,4,4,2,4,4,4,2,4,4,4,2,4,4,4,2,4,2,4,4,2,4,4,2,4,2,4,4,2,4,4,2,4,4,4,2,4,4,4,2,4,2,4,4,2,2,4,4,2,2,4,4,4,4,4,2,4,4,4,2,4,2,4,4,4,4,4,2,4,2,4,4,2,4,4,2,4,4,4,2,4,4,4,2,4,4,4,4,4,4,4,4,4,2,4,4,2,4,4,4,4,2,4,4,4,2,4,4,2,4,4,4,4,4,4,4,4,4,4,4,4,4,4,4,4,4,4,4,4,2,4,4,2,4,4,4,4,2,4,4,2,4,4,4,4,4,4,4,4,4,4,4,4,2,4,4,2,2,4,4,2,2,4,4,4,4,4,4,4,4,4,4,4,2,4,4,4,4,4,4,4,2,4,4,2,4,4,4,4,4,4,4,4,4,4,4,4,4,4,4,4,4,4,4,4,1,4,4,1,4,4,4,4,1,4,4,4,1,4,4,1,4,4,4,4,4,4,4,4,4,4,4,4,4,4,4,4,4,4,4,4,1,4,4,1,4,4,4,4,1,4,4,1,4,4,4,4,4,4,4,4,4,4,4,4,1,4,4,1,1,4,4,1,1,4,4,4,4,4,4,4,4,4,4,4,1,4,4,4,4,4,4,4,1,4,4,1,4,4,4,4,4,4,4,4,4,4,4,4,]);

minShifts = 16;
maxShifts = 24;
minConsecShifts = 2;
maxConsecShifts = 4;

minConsecSameShifts = [1,1,2,1];
maxConsecSameShifts = [4,4,4,7];

minPerShifts = [0,0,0,0];
maxPerShifts = [24,24,12,24];